giant tour:
0, 69, 8, 19, 38, 70, 3, 64, 48, 26, 2, 33, 45, 73, 17, 47, 34, 22, 53, 41, 28, 76, 51, 62, 27, 68, 16, 61, 55, 25, 21, 44, 77, 42, 59, 72, 63, 20, 6, 7, 66, 58, 12, 4, 24, 60, 46, 15, 79, 39, 49, 54, 65, 29, 67, 37, 18, 50, 31, 1, 35, 5, 9, 52, 10, 74, 75, 40, 78, 71, 23, 11, 30, 43, 56, 36, 32, 13, 57, 14, 